&CONTROL
    pseudo_dir = "/home/roberto/.burai/.pseudopot"
/

CELL_PARAMETERS {angstrom}
  3.313600   0.000000   0.000000
  0.000000  10.478000   0.000000
  0.000000   0.000000   4.376300

ATOMIC_SPECIES
P      30.97376  P.pbe-n-van.UPF

ATOMIC_POSITIONS {angstrom}
P       0.000000   1.065403   0.352555
P       0.000000   9.412597   4.023745
P       1.656800   1.065403   1.835595
P       1.656800   9.412597   2.540705
P       1.656800   6.304403   0.352555
P       1.656800   4.173597   4.023745
P       0.000000   6.304403   1.835595
P       0.000000   4.173597   2.540705

