Geometry = GenFormat {
80  S
P
1      1      1.835595000000000      0.000000000000000     12.130806000000000
2      1      6.211895000000000      0.000000000000000     12.130806000000000
3      1     10.588195000000001      0.000000000000000     12.130806000000000
4      1     14.964494999999999      0.000000000000000     12.130806000000000
5      1      0.352555000000000      1.656800000000000     12.130806000000000
6      1      4.728855000000000      1.656800000000000     12.130806000000000
7      1      9.105155000000000      1.656800000000000     12.130806000000000
8      1     13.481455000000000      1.656800000000000     12.130806000000000
9      1      1.835595000000000      3.313600000000000     12.130806000000000
10     1      6.211895000000000      3.313600000000000     12.130806000000000
11     1     10.588195000000001      3.313600000000000     12.130806000000000
12     1     14.964494999999999      3.313600000000000     12.130806000000000
13     1      0.352555000000000      4.970400000000000     12.130806000000000
14     1      4.728855000000000      4.970400000000000     12.130806000000000
15     1      9.105155000000000      4.970400000000000     12.130806000000000
16     1     13.481455000000000      4.970400000000000     12.130806000000000
17     1      1.835595000000000      6.627200000000000     12.130806000000000
18     1      6.211895000000000      6.627200000000000     12.130806000000000
19     1     10.588195000000001      6.627200000000000     12.130806000000000
20     1     14.964494999999999      6.627200000000000     12.130806000000000
21     1      0.352555000000000      8.284000000000001     12.130806000000000
22     1      4.728855000000000      8.284000000000001     12.130806000000000
23     1      9.105155000000000      8.284000000000001     12.130806000000000
24     1     13.481455000000000      8.284000000000001     12.130806000000000
25     1      1.835595000000000      9.940799999999999     12.130806000000000
26     1      6.211895000000000      9.940799999999999     12.130806000000000
27     1     10.588195000000001      9.940799999999999     12.130806000000000
28     1     14.964494999999999      9.940799999999999     12.130806000000000
29     1      0.352555000000000     11.597600000000000     12.130806000000000
30     1      4.728855000000000     11.597600000000000     12.130806000000000
31     1      9.105155000000000     11.597600000000000     12.130806000000000
32     1     13.481455000000000     11.597600000000000     12.130806000000000
33     1      1.835595000000000     13.254400000000000     12.130806000000000
34     1      6.211895000000000     13.254400000000000     12.130806000000000
35     1     10.588195000000001     13.254400000000000     12.130806000000000
36     1     14.964494999999999     13.254400000000000     12.130806000000000
37     1      0.352555000000000     14.911199999999999     12.130806000000000
38     1      4.728855000000000     14.911199999999999     12.130806000000000
39     1      9.105155000000000     14.911199999999999     12.130806000000000
40     1     13.481455000000000     14.911199999999999     12.130806000000000
41     1      2.540705000000000      0.000000000000000     10.000000000000000
42     1      6.917005000000000      0.000000000000000     10.000000000000000
43     1     11.293305000000000      0.000000000000000     10.000000000000000
44     1     15.669605000000001      0.000000000000000     10.000000000000000
45     1      4.023745000000000      1.656800000000000     10.000000000000000
46     1      8.400045000000000      1.656800000000000     10.000000000000000
47     1     12.776344999999999      1.656800000000000     10.000000000000000
48     1     17.152645000000000      1.656800000000000     10.000000000000000
49     1      2.540705000000000      3.313600000000000     10.000000000000000
50     1      6.917005000000000      3.313600000000000     10.000000000000000
51     1     11.293305000000000      3.313600000000000     10.000000000000000
52     1     15.669605000000001      3.313600000000000     10.000000000000000
53     1      4.023745000000000      4.970400000000000     10.000000000000000
54     1      8.400045000000000      4.970400000000000     10.000000000000000
55     1     12.776344999999999      4.970400000000000     10.000000000000000
56     1     17.152645000000000      4.970400000000000     10.000000000000000
57     1      2.540705000000000      6.627200000000000     10.000000000000000
58     1      6.917005000000000      6.627200000000000     10.000000000000000
59     1     11.293305000000000      6.627200000000000     10.000000000000000
60     1     15.669605000000001      6.627200000000000     10.000000000000000
61     1      4.023745000000000      8.284000000000001     10.000000000000000
62     1      8.400045000000000      8.284000000000001     10.000000000000000
63     1     12.776344999999999      8.284000000000001     10.000000000000000
64     1     17.152645000000000      8.284000000000001     10.000000000000000
65     1      2.540705000000000      9.940799999999999     10.000000000000000
66     1      6.917005000000000      9.940799999999999     10.000000000000000
67     1     11.293305000000000      9.940799999999999     10.000000000000000
68     1     15.669605000000001      9.940799999999999     10.000000000000000
69     1      4.023745000000000     11.597600000000000     10.000000000000000
70     1      8.400045000000000     11.597600000000000     10.000000000000000
71     1     12.776344999999999     11.597600000000000     10.000000000000000
72     1     17.152645000000000     11.597600000000000     10.000000000000000
73     1      2.540705000000000     13.254400000000000     10.000000000000000
74     1      6.917005000000000     13.254400000000000     10.000000000000000
75     1     11.293305000000000     13.254400000000000     10.000000000000000
76     1     15.669605000000001     13.254400000000000     10.000000000000000
77     1      4.023745000000000     14.911199999999999     10.000000000000000
78     1      8.400045000000000     14.911199999999999     10.000000000000000
79     1     12.776344999999999     14.911199999999999     10.000000000000000
80     1     17.152645000000000     14.911199999999999     10.000000000000000
0.000000000000000      0.000000000000000      0.000000000000000
17.505199999999999      0.000000000000000      0.000000000000000
0.000000000000000     16.568000000000001      0.000000000000000
0.000000000000000      0.000000000000000     22.130800000000001
}
Driver = GeometryOptimization {
  LatticeOpt = Yes
  MaxSteps = 1000
  MovedAtoms = 1:-1
  Optimizer = LBFGS {
    Memory = 20
  }
  Convergence = {
    Energy = 1.7976931348623157E+308
    GradNorm = 1.7976931348623157E+308
    GradElem = 1.0000000000000000E-004
    DispNorm = 1.7976931348623157E+308
    DispElem = 1.7976931348623157E+308
  }
  OutputPrefix = "geo_end"
}
Hamiltonian = DFTB {
  KPointsAndWeights = SupercellFolding {
1 0 0
0 1 0
0 0 1
0.0 0.0 0.0
  }
  MaxAngularMomentum = {
    P = d
  }
  SlaterKosterFiles = Type2FileNames {
    Prefix = /home/roberto/slako/matsci/matsci-0-3/
    Separator = "-"
    Suffix = ".skf"
    LowerCaseTypeName = No
  }
  PolynomialRepulsive = {}
  SCC = No
  OldSKInterpolation = No
  RangeSeparated = None {}
  SpinPolarisation = {}
  ElectricField = {}
  Solver = RelativelyRobust {}
  Charge = 0.0000000000000000
  OnSiteCorrection = {}
  Dispersion = {}
  Solvation = {}
  Electrostatics = GammaFunctional {}
  Differentiation = FiniteDiff {
    Delta = 1.2207031250000000E-004
  }
  Filling = Fermi {
    Temperature = 0.0000000000000000
    IndependentKFilling = No
  }
}
Options = {
  WriteResultsTag = Yes
  WriteDetailedOut = Yes
  WriteAutotestTag = No
  WriteDetailedXML = No
  RandomSeed = 0
  WriteHS = No
  WriteRealHS = No
  MinimiseMemoryUsage = No
  ShowFoldedCoords = No
  TimingVerbosity = 1
  WriteChargesAsText = No
}
ParserOptions = {
  IgnoreUnprocessedNodes = Yes
  ParserVersion = 10
  WriteHSDInput = Yes
  StopAfterParsing = No
}
Reks = None {}
Analysis = {
  ProjectStates = {}
  WriteEigenvectors = No
  WriteBandOut = Yes
  MullikenAnalysis = Yes
  WriteNetCharges = No
  AtomResolvedEnergies = No
  CalculateForces = No
}
ExcitedState = {}
