&CONTROL
    calculation = "scf"
    max_seconds =  8.64000e+04
    pseudo_dir  = "/home/roberto/.burai/.pseudopot"
/

&SYSTEM
    a           =  1.75052e+01
    b           =  1.65680e+01
    c           =  2.21308e+01
    degauss     =  1.00000e-02
    ecutrho     =  2.25000e+02
    ecutwfc     =  2.50000e+01
    ibrav       = 8
    nat         = 80
    ntyp        = 1
    occupations = "smearing"
    smearing    = "gaussian"
/

&ELECTRONS
    conv_thr         =  1.00000e-06
    electron_maxstep = 200
    mixing_beta      =  7.00000e-01
    startingpot      = "atomic"
    startingwfc      = "atomic+random"
/

K_POINTS {gamma}

ATOMIC_SPECIES
P      30.97376  P.pbe-n-van.UPF

ATOMIC_POSITIONS {angstrom}
P       1.835595   0.000000  12.130806
P       6.211895   0.000000  12.130806
P      10.588195   0.000000  12.130806
P      14.964495   0.000000  12.130806
P       0.352555   1.656800  12.130806
P       4.728855   1.656800  12.130806
P       9.105155   1.656800  12.130806
P      13.481455   1.656800  12.130806
P       1.835595   3.313600  12.130806
P       6.211895   3.313600  12.130806
P      10.588195   3.313600  12.130806
P      14.964495   3.313600  12.130806
P       0.352555   4.970400  12.130806
P       4.728855   4.970400  12.130806
P       9.105155   4.970400  12.130806
P      13.481455   4.970400  12.130806
P       1.835595   6.627200  12.130806
P       6.211895   6.627200  12.130806
P      10.588195   6.627200  12.130806
P      14.964495   6.627200  12.130806
P       0.352555   8.284000  12.130806
P       4.728855   8.284000  12.130806
P       9.105155   8.284000  12.130806
P      13.481455   8.284000  12.130806
P       1.835595   9.940800  12.130806
P       6.211895   9.940800  12.130806
P      10.588195   9.940800  12.130806
P      14.964495   9.940800  12.130806
P       0.352555  11.597600  12.130806
P       4.728855  11.597600  12.130806
P       9.105155  11.597600  12.130806
P      13.481455  11.597600  12.130806
P       1.835595  13.254400  12.130806
P       6.211895  13.254400  12.130806
P      10.588195  13.254400  12.130806
P      14.964495  13.254400  12.130806
P       0.352555  14.911200  12.130806
P       4.728855  14.911200  12.130806
P       9.105155  14.911200  12.130806
P      13.481455  14.911200  12.130806
P       2.540705   0.000000  10.000000  0 0 0
P       6.917005   0.000000  10.000000  0 0 0
P      11.293305   0.000000  10.000000  0 0 0
P      15.669605   0.000000  10.000000  0 0 0
P       4.023745   1.656800  10.000000  0 0 0
P       8.400045   1.656800  10.000000  0 0 0
P      12.776345   1.656800  10.000000  0 0 0
P      17.152645   1.656800  10.000000  0 0 0
P       2.540705   3.313600  10.000000  0 0 0
P       6.917005   3.313600  10.000000  0 0 0
P      11.293305   3.313600  10.000000  0 0 0
P      15.669605   3.313600  10.000000  0 0 0
P       4.023745   4.970400  10.000000  0 0 0
P       8.400045   4.970400  10.000000  0 0 0
P      12.776345   4.970400  10.000000  0 0 0
P      17.152645   4.970400  10.000000  0 0 0
P       2.540705   6.627200  10.000000  0 0 0
P       6.917005   6.627200  10.000000  0 0 0
P      11.293305   6.627200  10.000000  0 0 0
P      15.669605   6.627200  10.000000  0 0 0
P       4.023745   8.284000  10.000000  0 0 0
P       8.400045   8.284000  10.000000  0 0 0
P      12.776345   8.284000  10.000000  0 0 0
P      17.152645   8.284000  10.000000  0 0 0
P       2.540705   9.940800  10.000000  0 0 0
P       6.917005   9.940800  10.000000  0 0 0
P      11.293305   9.940800  10.000000  0 0 0
P      15.669605   9.940800  10.000000  0 0 0
P       4.023745  11.597600  10.000000  0 0 0
P       8.400045  11.597600  10.000000  0 0 0
P      12.776345  11.597600  10.000000  0 0 0
P      17.152645  11.597600  10.000000  0 0 0
P       2.540705  13.254400  10.000000  0 0 0
P       6.917005  13.254400  10.000000  0 0 0
P      11.293305  13.254400  10.000000  0 0 0
P      15.669605  13.254400  10.000000  0 0 0
P       4.023745  14.911200  10.000000  0 0 0
P       8.400045  14.911200  10.000000  0 0 0
P      12.776345  14.911200  10.000000  0 0 0
P      17.152645  14.911200  10.000000  0 0 0

